seed= 2052018 ;
N= 105 ;
M= 3 ;
F= 3 ;
K= 4 ;
T= 36 ;

p=[ 4 4 4 4 4 4 4 4 4 4 4 4 4 4 4 4 4 4 4 4 4 4 4 4 4 4 4 4 4 4 4 4 4 4 4 2 2 2 2 2 2 2 2 2 2 2 2 2 2 2 2 2 2 2 2 2 2 2 2 2 2 2 2 2 2 2 2 2 2 2 2 2 2 2 2 2 2 2 2 2 2 2 2 2 2 2 2 2 2 2 2 2 2 2 2 2 2 2 2 2 2 2 2 2 2 ];
r=[ 0 0 0 0 0 0 0 0 0 0 0 0 0 0 0 0 0 0 0 0 0 0 0 0 0 0 0 0 0 0 0 0 0 0 0 0 0 0 0 0 0 0 0 0 0 0 0 0 0 0 0 0 0 0 0 0 0 0 0 0 0 0 0 0 0 0 0 0 0 0 0 0 0 0 0 0 0 0 0 0 0 0 0 0 0 0 0 0 0 0 0 0 0 0 0 0 0 0 0 0 0 0 0 0 0 ];
d=[ 2 9 3 18 27 25 34 2 28 35 31 23 29 22 30 23 20 19 23 4 16 32 8 35 26 22 21 6 35 28 15 14 16 5 33 5 12 18 2 29 33 2 25 31 15 17 31 28 28 29 29 20 30 4 15 30 12 24 19 25 5 20 23 31 12 26 2 13 35 4 16 0 16 2 22 18 6 3 11 30 21 12 9 12 10 16 29 22 12 34 6 1 14 17 26 16 35 7 30 1 8 10 5 19 21 ];
s=[ 1 1 1 1 1 1 1 1 1 1 1 1 1 1 1 1 1 1 1 1 1 1 1 1 1 1 1 1 1 1 1 1 1 1 1 1 1 1 1 1 1 1 1 1 1 1 1 1 1 1 1 1 1 1 1 1 1 1 1 1 1 1 1 1 1 1 1 1 1 1 1 1 1 1 1 1 1 1 1 1 1 1 1 1 1 1 1 1 1 1 1 1 1 1 1 1 1 1 1 1 1 1 1 1 1 ];
w=[ 3 1 5 5 4 5 4 4 3 1 1 4 1 3 5 4 4 4 2 5 1 2 5 4 2 5 3 5 4 4 3 2 4 4 4 5 3 2 1 1 1 1 5 2 4 3 4 4 2 3 1 4 5 1 4 1 1 3 2 2 5 3 2 4 2 5 5 1 4 2 1 2 4 5 4 2 2 5 3 1 4 5 3 5 5 4 4 4 5 1 1 5 5 3 3 4 1 4 5 4 2 4 5 2 1 ];
f=[ 1 1 1 1 1 1 1 1 1 1 1 1 1 1 1 1 1 1 1 1 1 1 1 1 1 1 1 1 1 1 1 1 1 1 1 2 2 2 2 2 2 2 2 2 2 2 2 2 2 2 2 2 2 2 2 2 2 2 2 2 2 2 2 2 2 2 2 2 2 2 3 3 3 3 3 3 3 3 3 3 3 3 3 3 3 3 3 3 3 3 3 3 3 3 3 3 3 3 3 3 3 3 3 3 3 ];

e1=[ 10 10 10 10 10 10 10 10 10 10 10 10 10 10 10 10 10 10 8 8 8 8 8 8 8 8 8 8 8 8 8 8 8 8 8 8 ];
e2=[ 10 10 10 10 10 10 10 10 10 10 10 10 9 9 9 9 9 9 8 8 8 8 8 8 8 8 8 8 8 8 9 9 9 9 9 9 ];